3442
1788
6236
1132
8222
8175
2410
767
2827
7277
6349
7343
9558
5531
9793
7543
4032
1873
9526
2309
5167
2110
4541
8018
1288
2381
627
7918
7149
3509
9732
3658
1218
4897
7312
5223
5019
10004
4619
5513
5660
8952
5096
10055
2432
5280
4621
4796
3489
2585
3417
